p cnf 20 44
a 13 6 0
e 1 2 3 4 5 7 8 9 10 11 12 14 15 16 17 18 19 20 0
-3 1 0
-3 2 0
-1 -2 3 0
5 4 0
5 4 0
-4 -5 0
-8 6 0
-8 -7 0
-6 7 8 0
-10 7 0
-10 9 0
-7 -9 10 0
11 7 0
11 -4 0
-7 4 -11 0
-10 -11 -12 0
10 11 -12 0
-10 11 12 0
10 -11 12 0
9 14 -15 0
-9 -14 -15 0
9 -14 15 0
-9 14 15 0
16 13 0
16 -15 0
-13 15 -16 0
-17 12 0
-17 -16 0
-12 16 17 0
-18 8 0
-18 17 0
-8 -17 18 0
5 -18 -19 0
-5 18 -19 0
5 18 19 0
-5 -18 19 0
-20 3 0
-20 19 0
-3 -19 20 0
3 13 -16 -19 11 -17 0
-7 -4 14 -12 -8 0
-11 19 16 18 -1 0
7 -10 -6 -13 2 14 8 0
20 0
